data;

set A := 258 886 56 336 568 30 478 116 670 160 384 114 216 676 262 426 948 546 494 686 454 938 534 172 142 72 270 208 930 34 84 178 762 154 562 274 632 306 940 150 808 204 518 984 452 528 200 422 926 902 314 586 144 58 26 864 250 82 476 684 818 644 240 636 648 982 8 552;
param T := 17000;

end;
